c Random generated cnf formula, satisfiable: false
p cnf 10 50
1 2 -3 0
-1 -2 5 0
3 5 10 0
-3 -9 -10 0
-3 8 -6 0
7 6 5 0
-2 -5 -10 0
-8 1 -6 0
-8 -1 -5 0
-10 8 2 0
-7 -10 -1 0
3 -5 1 0
2 5 6 0
1 7 2 0
-2 -8 -9 0
-10 2 5 0
-10 2 -5 0
5 7 -2 0
-4 -7 3 0
4 5 8 0
-10 -4 7 0
-7 8 -9 0
-5 -10 -1 0
9 3 -5 0
5 2 -8 0
-9 5 -10 0
4 -5 -9 0
-3 -4 1 0
-5 4 -2 0
-5 -9 1 0
-2 -10 -3 0
1 -5 6 0
5 2 8 0
10 -2 -7 0
8 -10 -1 0
-3 -6 8 0
-5 -8 -9 0
-10 -3 2 0
-6 -9 -4 0
-6 -8 1 0
-9 -8 2 0
-7 3 6 0
5 3 -1 0
-3 1 8 0
8 -9 10 0
10 3 -1 0
-7 -1 -5 0
-8 5 1 0
-3 6 9 0
6 -10 3 0
